
List of user-set options:

                                    Name   Value                used
                           compl_inf_tol = 1                     yes
                         constr_viol_tol = 1                     yes
                            dual_inf_tol = 1000                  yes
                           linear_solver = ma97                  yes
                              ma86_small = 1e-30                  no
                                  ma86_u = 0.0001                 no
                              ma97_order = best                  yes
                              ma97_small = 1e-30                 yes
                            ma97_switch1 = at_start              yes
                            ma97_switch2 = od_hd_reuse           yes
                                  ma97_u = 1e-06                 yes
                               ma97_umax = 0.5                   yes
                                max_iter = 1000                  yes
                    max_refinement_steps = 20                    yes
                    min_refinement_steps = 5                     yes
                                 mu_init = 1e-06                 yes
           mu_superlinear_decrease_power = 1.25                  yes
                   nlp_scaling_min_value = 1e-08                 yes
                        option_file_name = Preset_Case_408_pf.opt  yes
                             output_file = ./tmp/Preset_Case_408_pf.output  yes
                      print_user_options = yes                   yes
        required_infeasibility_reduction = 1                      no
                                     tol = 1e-08                 yes
                   warm_start_bound_frac = 1e-20                 yes
                   warm_start_bound_push = 1e-20                 yes
                   warm_start_init_point = yes                   yes
              warm_start_mult_bound_push = 1e-20                 yes
                warm_start_mult_init_max = 1e+40                 yes
             warm_start_slack_bound_frac = 1e-20                 yes
             warm_start_slack_bound_push = 1e-20                 yes

******************************************************************************
This program contains Ipopt, a library for large-scale nonlinear optimization.
 Ipopt is released as open source code under the Eclipse Public License (EPL).
         For more information visit http://projects.coin-or.org/Ipopt
******************************************************************************

This is Ipopt version 3.12.10, running with linear solver ma97.

Number of nonzeros in equality constraint Jacobian...:   123443
Number of nonzeros in inequality constraint Jacobian.:      213
Number of nonzeros in Lagrangian Hessian.............:    49069

Total number of variables............................:    31591
                     variables with only lower bounds:    12912
                variables with lower and upper bounds:    15130
                     variables with only upper bounds:        0
Total number of equality constraints.................:    31483
Total number of inequality constraints...............:       25
        inequality constraints with only lower bounds:        4
   inequality constraints with lower and upper bounds:        0
        inequality constraints with only upper bounds:       21

iter    objective    inf_pr   inf_du lg(mu)  ||d||  lg(rg) alpha_du alpha_pr  ls
   0 -5.4545168e+00 4.04e-03 1.02e+00  -6.0 0.00e+00    -  0.00e+00 0.00e+00   0
   1 -5.4541033e+00 6.89e-02 1.78e+00  -6.0 3.94e+05    -  8.18e-05 1.02e-04h  3
   2 -5.4558649e+00 6.87e-02 5.09e+01  -6.0 3.64e+03    -  2.24e-01 1.95e-03h  1
   3 -5.7383611e+00 5.16e+00 1.26e+03  -6.0 3.64e+03    -  4.64e-02 3.13e-01f  1
   4 -5.8902944e+00 6.55e+00 1.36e+03  -6.0 2.03e+03    -  1.75e-02 3.01e-01h  1
   5 -5.8942073e+00 6.26e+00 1.29e+03  -6.0 3.24e+03    -  7.31e-02 5.65e-02h  1
   6 -6.0399784e+00 1.45e+01 1.19e+06  -6.0 1.40e+03    -  3.10e-01 6.43e-01h  1
   7 -6.0613791e+00 1.09e+01 4.56e+05  -6.0 8.32e+02    -  1.52e-01 3.40e-01h  1
   8 -6.0558170e+00 6.12e+00 8.51e+05  -6.0 5.32e+02    -  8.45e-04 5.88e-01h  1
   9 -6.0570754e+00 5.26e+00 7.27e+05  -6.0 3.02e+02    -  1.46e-01 1.46e-01h  1
iter    objective    inf_pr   inf_du lg(mu)  ||d||  lg(rg) alpha_du alpha_pr  ls
  10 -5.9994260e+00 1.09e+00 3.56e+05  -6.0 1.60e+02    -  1.43e-01 1.00e+00h  1
  11 -6.0281824e+00 4.64e-03 3.22e+05  -6.0 5.04e+00  -4.0 4.06e-01 1.00e+00h  1
  12 -6.0202673e+00 1.13e-04 3.79e+04  -6.0 1.03e+00  -4.5 8.62e-01 1.00e+00h  1
  13 -6.0205506e+00 3.90e-04 1.39e+03  -6.0 3.54e+00  -5.0 9.63e-01 1.00e+00H  1
  14 -6.0212339e+00 5.57e-03 5.06e-01  -6.0 6.85e+00  -5.4 1.00e+00 1.00e+00h  1
  15 -6.0228424e+00 3.16e-04 4.71e+00  -6.0 1.95e+01  -5.9 6.97e-01 1.00e+00H  1
  16 -6.0263849e+00 1.42e-03 6.64e+00  -6.0 4.87e+01  -6.4 8.44e-01 1.00e+00H  1
  17 -6.0338796e+00 3.22e-01 1.26e+01  -6.0 1.02e+02  -6.9 5.48e-01 1.00e+00h  1
  18 -6.0487297e+00 3.03e+00 7.05e+01  -6.0 2.83e+02  -7.3 5.26e-01 1.00e+00h  1
  19 -6.0532116e+00 2.97e-01 3.34e+01  -6.0 1.01e+02  -6.9 3.50e-01 1.00e+00h  1
iter    objective    inf_pr   inf_du lg(mu)  ||d||  lg(rg) alpha_du alpha_pr  ls
  20 -6.0619494e+00 1.40e+00 7.49e+00  -6.0 3.44e+02  -7.4 5.12e-01 6.01e-01h  1
  21 -6.0640475e+00 3.88e-02 3.88e+00  -6.0 6.44e+01  -7.0 1.00e+00 1.00e+00h  1
  22 -6.0717115e+00 7.87e-01 1.20e+03  -6.0 8.01e+02  -7.4 2.28e-01 2.04e-01h  1
  23 -6.0828746e+00 1.17e+00 2.35e+03  -6.0 2.40e+02  -7.0 1.00e+00 7.73e-01h  1
  24 -6.1036414e+00 4.78e+00 5.68e+04  -6.0 9.17e+02  -7.5 2.04e-01 5.84e-01h  1
  25 -6.1042137e+00 4.78e+00 1.17e+05  -6.0 3.46e+04    -  1.09e-02 4.72e-04h  1
  26 -6.1434687e+00 9.64e+00 2.89e+04  -6.0 2.53e+04    -  4.63e-03 4.41e-02f  1
  27 -6.1440803e+00 9.55e+00 2.61e+04  -6.0 2.45e+03    -  3.98e-01 9.79e-03h  1
  28 -6.1633239e+00 6.93e+00 1.52e+06  -6.0 2.67e+03    -  6.04e-02 2.77e-01h  1
  29 -6.1737649e+00 1.50e+01 1.43e+06  -6.0 3.71e+03    -  9.98e-03 2.58e-01h  1
iter    objective    inf_pr   inf_du lg(mu)  ||d||  lg(rg) alpha_du alpha_pr  ls
  30 -6.1764971e+00 1.32e+01 1.63e+06  -6.0 2.14e+02  -5.3 1.58e-02 1.21e-01h  1
  31 -6.1667873e+00 3.06e-02 2.78e+06  -6.0 3.25e+01  -5.7 2.10e-01 1.00e+00h  1
  32 -6.1673398e+00 2.60e-03 3.93e+05  -6.0 9.67e+00  -5.3 4.51e-01 1.00e+00h  1
  33 -6.1675395e+00 2.69e-03 5.76e+05  -6.0 1.07e+03    -  3.27e-01 2.85e-03h  1
  34 -6.1886281e+00 2.06e+00 5.37e+05  -6.0 1.02e+03    -  1.00e+00 4.18e-01f  1
  35 -6.1929202e+00 1.83e+00 4.47e+05  -6.0 5.83e+02    -  2.07e-01 1.19e-01h  1
  36 -6.1957721e+00 1.82e+00 6.10e+04  -6.0 5.70e+02    -  6.14e-01 3.83e-01h  1
  37 -6.1971704e+00 2.26e+00 4.24e+04  -6.0 8.59e+02    -  5.35e-01 3.05e-01h  1
  38 -6.1974619e+00 5.42e+00 2.20e+02  -6.0 6.13e+02    -  5.01e-01 1.00e+00h  1
  39 -6.1943968e+00 1.15e-03 8.11e+00  -6.0 6.28e+00  -5.8 2.30e-01 1.00e+00h  1
iter    objective    inf_pr   inf_du lg(mu)  ||d||  lg(rg) alpha_du alpha_pr  ls
  40 -6.1947622e+00 3.62e-02 5.52e-01  -6.0 3.39e+01    -  1.00e+00 1.00e+00h  1
  41 -6.1951017e+00 7.88e-01 4.14e+01  -6.0 5.92e+04    -  3.73e-02 3.88e-03h  1
  42 -6.1954518e+00 3.45e+00 7.08e+00  -6.0 6.88e+02    -  1.00e+00 6.81e-01h  1
  43 -6.1953486e+00 3.20e+00 1.43e+01  -6.0 8.23e+02    -  3.19e-03 2.50e-01h  3
  44 -6.1951145e+00 1.52e-04 1.23e+01  -6.0 7.74e-01  -6.3 3.83e-01 1.00e+00h  1
  45 -6.1952192e+00 5.04e-01 1.09e-01  -6.0 1.87e+02    -  1.00e+00 1.00e+00h  1
  46 -6.1952205e+00 2.71e-01 3.71e-02  -6.0 1.38e+02    -  1.00e+00 1.00e+00h  1
  47 -6.1952046e+00 2.73e-04 2.05e-05  -6.0 4.65e+00    -  1.00e+00 1.00e+00h  1
  48 -6.1952046e+00 3.11e-07 5.16e-08  -6.0 1.47e-01    -  1.00e+00 1.00e+00h  1
  49 -6.1952807e+00 1.25e-01 4.78e+01  -7.5 1.09e+02    -  9.53e-01 7.88e-01h  1
iter    objective    inf_pr   inf_du lg(mu)  ||d||  lg(rg) alpha_du alpha_pr  ls
  50 -6.1952810e+00 2.08e-02 7.44e+00  -7.5 2.40e+01    -  1.00e+00 8.97e-01h  1
  51 -6.1952800e+00 8.67e-05 2.75e-03  -7.5 2.24e+00    -  1.00e+00 1.00e+00h  1
  52 -6.1952800e+00 2.85e-10 2.28e-10  -7.5 2.88e-03    -  1.00e+00 1.00e+00h  1
  53 -6.1952815e+00 1.49e-04 6.97e-01  -9.0 3.50e+00    -  9.23e-01 8.47e-01h  1
  54 -6.1952817e+00 4.90e-06 4.89e-02  -9.0 5.37e-01    -  9.88e-01 1.00e+00f  1
  55 -6.1952817e+00 2.85e-10 4.68e-09  -9.0 1.23e-04    -  1.00e+00 1.00e+00h  1

Number of Iterations....: 55

                                   (scaled)                 (unscaled)
Objective...............:  -4.8400638283942543e+00   -6.1952817003446459e+00
Dual infeasibility......:   4.6769948105319261e-09    5.9865533574808651e-09
Constraint violation....:   2.8493947620226306e-10    2.8493947620226306e-10
Complementarity.........:   1.4900493285666020e-09    1.9072631405652508e-09
Overall NLP error.......:   4.6769948105319261e-09    5.9865533574808651e-09


Number of objective function evaluations             = 65
Number of objective gradient evaluations             = 56
Number of equality constraint evaluations            = 65
Number of inequality constraint evaluations          = 65
Number of equality constraint Jacobian evaluations   = 56
Number of inequality constraint Jacobian evaluations = 56
Number of Lagrangian Hessian evaluations             = 55
Total CPU secs in IPOPT (w/o function evaluations)   =    134.773
Total CPU secs in NLP function evaluations           =      2.040

EXIT: Optimal Solution Found.
